15997
1 1 1 1 1 1 1 1 1 1 0 1 0 0 1 0 0 1 0 0 1 1 0 0 1 0 0 0 1 0 
20 11 20 2 20 5 2 9 14 17 9 8 8 20 3 14 14 17 5 11 2 0 5 3 5 8 2 24 5 24 5 11 6 11 20 20 24 24 0 14 0 14 24 8 24 14 0 20 11 8 5 14 14 5 20 20 17 11 0 14 0 5 20 11 11 11 9 0 5 9 20 6 11 17 24 8 9 20 14 24 20 7 8 17 17 17 17 4 20 5 2 24 17 11 17 5 2 2 21 8 8 17 17 11 2 5 17 11 14 28 14 1 2 11 11 21 24 24 24 24 5 8 11 8 8 0 5 9 0 21 0 0 5 21 8 14 7 0 8 17 0 8 8 14 17 0 0 0 2 5 
